NAME : pr299.22615.tour
COMMENT : Length = 22615
COMMENT : Found by LKH [Keld Helsgaun] Sat May 25 06:41:17 2013
TYPE : TOUR
DIMENSION : 60
TOUR_SECTION
3
2
7
8
143
157
158
141
97
96
95
83
24
25
72
73
69
34
33
63
38
59
60
58
52
56
55
119
120
176
178
256
259
260
255
248
245
193
242
238
273
235
198
168
165
164
202
230
282
283
280
220
221
216
289
214
294
297
152
148
-1
EOF
